Route #1:
Route #2: 26 2 23 3 17 19 20 29
Route #3: 30 12
Route #4: 15 9 5 27
Route #5: 24
Route #6: 10 25
Route #7: 4 11 7 16
Route #8: 28 14
Route #9: 6 8 22 18 21 31 13 1

Cost: 1551.2041626999228
